(set-option :print-success false)
(set-logic QF_UF)
(declare-sort x104 0)
(declare-sort x97 0)
(declare-fun x73 () x97)
(declare-fun x125 () x97)
(declare-fun x120 () x97)
(declare-fun x93 (x97 x97) x97)
(declare-fun x19 (x97 x97) x97)
(declare-fun x159 () x97)
(declare-fun x98 () x97)
(assert (let ((x147 (x19 x98 x125)) (x25 (x19 x73 x98)) (x26 (x19 x120 x159)) (x140 (x19 x159 x159)) (x158 (x19 x73 x120)) (x51 (x19 x125 x159)) (x102 (x19 x73 x125)) (x28 (x19 x98 x73)) (x99 (x19 x125 x120)) (x115 (x19 x120 x120)) (x7 (x19 x120 x73)) (x123 (x19 x159 x73)) (x60 (x19 x125 x73)) (x74 (x19 x98 x159)) (x155 (x19 x120 x125)) (x148 (x19 x159 x98)) (x94 (x19 x98 x120)) (x90 (x19 x159 x120)) (x119 (x19 x73 x73)) (x142 (x19 x98 x98)) (x39 (x19 x159 x125)) (x18 (x19 x73 x159)) (x146 (x19 x120 x98)) (x59 (x19 x125 x125)) (x53 (x19 x125 x98))) (let ((x12 (= x60 x73)) (x134 (= x39 x159)) (x40 (= x53 x125)) (x57 (= x59 x125)) (x58 (= x98 x28)) (x6 (= x18 x125)) (x23 (= x159 x155)) (x143 (= x146 x98)) (x64 (= x159 x51)) (x112 (= x120 x158)) (x129 (= x115 x73)) (x118 (= x125 x39)) (x47 (= x90 x120)) (x21 (= x60 x159)) (x67 (= x74 x98)) (x151 (= x7 x125)) (x126 (= x146 x73)) (x133 (= x98 x148)) (x71 (= x140 x73)) (x36 (= x28 x73)) (x3 (= x120 x25)) (x137 (= x53 x73)) (x62 (= x125 x140)) (x70 (= x18 x98)) (x135 (= x155 x120)) (x34 (= x159 x102)) (x42 (= x73 x158)) (x38 (= x120 x148)) (x80 (= x125 x146)) (x157 (= x155 x98)) (x11 (= x115 x159)) (x101 (= x159 x99)) (x24 (= x94 x120)) (x152 (= x155 x125)) (x109 (= x120 x7)) (x55 (= x25 x98)) (x144 (= x98 x147)) (x106 (= x142 x98)) (x10 (= x120 x51)) (x131 (= x60 x120)) (x96 (= x125 x119)) (x66 (= x115 x98)) (x44 (= x18 x73)) (x150 (= x125 x147)) (x30 (= x98 x51)) (x132 (= x120 x115)) (x27 (= x60 x125)) (x130 (= x59 x98)) (x121 (= x73 x51)) (x56 (= x159 x119)) (x8 (= x125 x102)) (x89 (= x120 x146)) (x41 (= x159 x59)) (x105 (= x148 x73)) (x14 (= x73 x147)) (x48 (= x99 x125)) (x136 (= x99 x98)) (x50 (= x53 x159)) (x113 (= x159 x142)) (x100 (= x158 x98)) (x85 (= x159 x18)) (x78 (= x120 x53)) (x69 (= x74 x73)) (x4 (= x102 x120)) (x49 (= x120 x140)) (x72 (= x120 x39)) (x107 (= x98 x140)) (x139 (= x123 x120)) (x82 (= x102 x73)) (x141 (= x26 x159)) (x110 (= x159 x7)) (x46 (= x98 x102)) (x37 (= x125 x158)) (x86 (= x159 x158)) (x108 (= x39 x98)) (x16 (= x74 x159)) (x35 (= x25 x73)) (x20 (= x98 x119)) (x114 (= x7 x98)) (x149 (= x142 x125)) (x31 (= x73 x90)) (x81 (= x73 x119)) (x77 (= x94 x159)) (x84 (= x99 x120)) (x68 (= x90 x98)) (x111 (= x7 x73)) (x52 (= x120 x74)) (x13 (= x123 x98)) (x22 (= x53 x98)) (x122 (= x73 x26)) (x103 (= x73 x59)) (x128 (= x74 x125)) (x43 (= x90 x159)) (x76 (= x115 x125)) (x92 (= x147 x120)) (x156 (= x26 x120)) (x116 (= x125 x26)) (x124 (= x125 x90)) (x45 (= x120 x28)) (x95 (= x120 x119)) (x91 (= x60 x98)) (x75 (= x140 x159)) (x17 (= x159 x123)) (x9 (= x142 x120)) (x154 (= x159 x147)) (x65 (= x120 x18)) (x61 (= x159 x146)) (x87 (= x125 x94)) (x145 (= x98 x94)) (x153 (= x155 x73)) (x63 (= x142 x73)) (x32 (= x123 x73)) (x79 (= x125 x28)) (x127 (= x125 x25)) (x5 (= x123 x125)) (x83 (= x159 x25)) (x33 (= x94 x73)) (x2 (= x98 x26)) (x29 (= x51 x125)) (x15 (= x159 x28)) (x1 (= x99 x73)) (x138 (= x39 x73)) (x88 (= x148 x125)) (x54 (= x120 x59)) (x117 (= x148 x159))) (and (and (and (and (or (or (or (or (and (not x16) x107) (or (or (and (not x52) x68) (and (not x67) x133)) (and (not x128) x108))) (and (not x69) x13)) (or (or (or (or (or (and x136 (not x92)) (and x22 (not x144))) (and (not x150) x130)) (and (not x154) x30)) (and (not x14) x91)) (or (or (or (or (and (not x87) x157) (or (and x143 (not x145)) (and x66 (not x24)))) (and (not x77) x2)) (and (not x33) x114)) (or (and x58 (not x63)) (or (and (not x113) x67) (or (or (and (not x9) x145) (and (not x106) x106)) (and (not x149) x144))))))) (or (and x20 (not x36)) (or (and (not x15) x70) (or (and (not x79) x46) (or (and x100 (not x45)) (and (not x58) x55)))))) (or (or (or (and x139 (not x122)) (or (and x49 (not x141)) (or (or (and (not x2) x38) (and (not x156) x47)) (and (not x116) x72)))) (or (or (or (or (and x52 (not x61)) (or (or (and x24 (not x89)) (and x9 (not x143))) (and x92 (not x80)))) (and (not x126) x45)) (or (and (not x129) x109) (or (or (and (not x76) x135) (or (and x89 (not x66)) (and (not x132) x132))) (and x156 (not x11))))) (or (and (not x153) x131) (or (and x10 (not x23)) (or (or (and x78 (not x157)) (and (not x135) x84)) (and x54 (not x152))))))) (or (or (or (or (and x3 (not x114)) (and x112 (not x109))) (and (not x151) x4)) (and (not x110) x65)) (and x95 (not x111))))) (or (or (and x96 (not x12)) (or (or (and (not x27) x8) (or (and x127 (not x91)) (and (not x131) x37))) (and (not x21) x6))) (or (or (or (and x62 (not x64)) (or (or (and (not x10) x124) (and (not x30) x88)) (and (not x29) x118))) (and (not x121) x5)) (or (or (or (or (or (and x40 (not x130)) (and x48 (not x54))) (and x57 (not x57))) (and x29 (not x41))) (and x27 (not x103))) (or (or (or (and (not x101) x116) (or (and (not x48) x152) (or (and x76 (not x84)) (and (not x136) x80)))) (and x151 (not x1))) (or (and x79 (not x137)) (or (and (not x50) x128) (or (and x150 (not x40)) (or (and x87 (not x78)) (and (not x22) x149)))))))))) (or (or (or (and (not x71) x17) (or (or (and (not x62) x134) (or (and x117 (not x107)) (and (not x49) x43))) (and x75 (not x75)))) (or (or (or (or (or (or (and x77 (not x38)) (and x113 (not x133))) (and (not x88) x154)) (and (not x117) x16)) (and x15 (not x105))) (or (and (not x31) x110) (or (and (not x43) x141) (or (and x23 (not x124)) (or (and (not x68) x61) (and x11 (not x47))))))) (or (or (or (and x41 (not x118)) (or (and x101 (not x72)) (and x50 (not x108)))) (and (not x134) x64)) (and (not x138) x21)))) (or (or (and (not x17) x85) (or (and x34 (not x5)) (or (and x83 (not x13)) (and x86 (not x139))))) (and (not x32) x56)))) (or (or (or (and x44 (not x56)) (or (and (not x96) x82) (or (and x42 (not x95)) (and x35 (not x20))))) (and (not x81) x81)) (or (or (or (and x71 (not x85)) (or (and x138 (not x6)) (or (and x31 (not x65)) (and (not x70) x105)))) (and x32 (not x44))) (or (or (or (and x111 (not x42)) (or (or (and x153 (not x37)) (or (and (not x100) x126) (and x129 (not x112)))) (and (not x86) x122))) (or (or (and x69 (not x83)) (or (and x14 (not x127)) (or (and x33 (not x3)) (and (not x55) x63)))) (and (not x35) x36))) (or (or (or (or (and (not x46) x137) (and (not x4) x1)) (and (not x8) x103)) (and (not x34) x121)) (and x12 (not x82))))))))))
(assert (and (and (and (or (= x125 (x19 (x19 x73 x125) x73)) (or (= x125 (x19 (x19 x159 x125) x159)) (or (= x125 (x19 (x19 x125 x125) x125)) (or (= (x19 (x19 x120 x125) x120) x125) (= (x19 (x19 x98 x125) x98) x125))))) (and (or (or (= x120 (x19 (x19 x159 x120) x159)) (or (= x120 (x19 (x19 x125 x120) x125)) (or (= (x19 (x19 x98 x120) x98) x120) (= x120 (x19 (x19 x120 x120) x120))))) (= x120 (x19 (x19 x73 x120) x73))) (or (or (or (or (= x98 (x19 (x19 x98 x98) x98)) (= (x19 (x19 x120 x98) x120) x98)) (= x98 (x19 (x19 x125 x98) x125))) (= (x19 (x19 x159 x98) x159) x98)) (= x98 (x19 (x19 x73 x98) x73))))) (or (or (= (x19 (x19 x159 x159) x159) x159) (or (or (= x159 (x19 (x19 x98 x159) x98)) (= x159 (x19 (x19 x120 x159) x120))) (= x159 (x19 (x19 x125 x159) x125)))) (= (x19 (x19 x73 x159) x73) x159))) (or (= (x19 (x19 x73 x73) x73) x73) (or (or (= x73 (x19 (x19 x125 x73) x125)) (or (= (x19 (x19 x120 x73) x120) x73) (= x73 (x19 (x19 x98 x73) x98)))) (= x73 (x19 (x19 x159 x73) x159))))))
(assert (or (or (or (or (and (= (x19 (x19 x73 x98) x73) x98) (and (and (= (x19 (x19 x125 x98) x125) x98) (and (= (x19 (x19 x120 x98) x120) x98) (= x98 (x19 (x19 x98 x98) x98)))) (= (x19 (x19 x159 x98) x159) x98))) (and (and (and (= x120 (x19 (x19 x125 x120) x125)) (and (= x120 (x19 (x19 x120 x120) x120)) (= (x19 (x19 x98 x120) x98) x120))) (= (x19 (x19 x159 x120) x159) x120)) (= (x19 (x19 x73 x120) x73) x120))) (and (and (= (x19 (x19 x159 x125) x159) x125) (and (and (= (x19 (x19 x98 x125) x98) x125) (= x125 (x19 (x19 x120 x125) x120))) (= x125 (x19 (x19 x125 x125) x125)))) (= (x19 (x19 x73 x125) x73) x125))) (and (= (x19 (x19 x73 x159) x73) x159) (and (= x159 (x19 (x19 x159 x159) x159)) (and (and (= x159 (x19 (x19 x98 x159) x98)) (= x159 (x19 (x19 x120 x159) x120))) (= (x19 (x19 x125 x159) x125) x159))))) (and (and (and (= (x19 (x19 x125 x73) x125) x73) (and (= (x19 (x19 x98 x73) x98) x73) (= (x19 (x19 x120 x73) x120) x73))) (= x73 (x19 (x19 x159 x73) x159))) (= x73 (x19 (x19 x73 x73) x73)))))
(assert (and (and (and (and (or (= x120 (x19 x73 (x19 x120 x73))) (or (= (x19 x159 (x19 x120 x159)) x120) (or (= (x19 x125 (x19 x120 x125)) x120) (or (= x120 (x19 x120 (x19 x120 x120))) (= x120 (x19 x98 (x19 x120 x98))))))) (or (or (or (or (= x98 (x19 x98 (x19 x98 x98))) (= (x19 x120 (x19 x98 x120)) x98)) (= (x19 x125 (x19 x98 x125)) x98)) (= x98 (x19 x159 (x19 x98 x159)))) (= x98 (x19 x73 (x19 x98 x73))))) (or (or (or (= (x19 x125 (x19 x125 x125)) x125) (or (= x125 (x19 x98 (x19 x125 x98))) (= x125 (x19 x120 (x19 x125 x120))))) (= x125 (x19 x159 (x19 x125 x159)))) (= x125 (x19 x73 (x19 x125 x73))))) (or (= (x19 x73 (x19 x159 x73)) x159) (or (= x159 (x19 x159 (x19 x159 x159))) (or (= (x19 x125 (x19 x159 x125)) x159) (or (= x159 (x19 x98 (x19 x159 x98))) (= (x19 x120 (x19 x159 x120)) x159)))))) (or (= (x19 x73 (x19 x73 x73)) x73) (or (= x73 (x19 x159 (x19 x73 x159))) (or (or (= x73 (x19 x98 (x19 x73 x98))) (= x73 (x19 x120 (x19 x73 x120)))) (= x73 (x19 x125 (x19 x73 x125))))))))
(assert (not (and (and (= x98 (x19 x73 x159)) (and (and (and (and (= (x19 x159 x73) x73) (and (and (= x125 (x19 x159 x125)) (and (and (= (x19 x159 x120) x120) (and (= (x19 x125 x73) x125) (and (and (and (and (= x98 (x19 x125 x120)) (and (= (x19 x98 x73) x159) (and (and (and (and (= x73 (x19 x98 x120)) (and (= x98 (x19 x120 x73)) (and (= x120 (x19 x120 x159)) (and (= (x19 x120 x125) x73) (and (= (x19 x120 x120) x159) (= (x19 x120 x98) x125)))))) (= (x19 x98 x98) x120)) (= (x19 x98 x125) x98)) (= x125 (x19 x98 x159))))) (= x159 (x19 x125 x98))) (= x120 (x19 x125 x125))) (= x73 (x19 x125 x159))))) (= x98 (x19 x159 x98)))) (= (x19 x159 x159) x159))) (= x125 (x19 x73 x120))) (= (x19 x73 x98) x73)) (= (x19 x73 x125) x159))) (= (x19 x73 x73) x120))))
(assert (let ((x24 (x19 x125 x98)) (x145 (x19 x159 x125)) (x26 (x19 x98 x125)) (x114 (x19 x159 x98)) (x142 (x19 x159 x73)) (x135 (x19 x120 x73)) (x7 (x19 x98 x73)) (x143 (x19 x125 x125)) (x106 (x19 x73 x120)) (x66 (x19 x125 x120)) (x146 (x19 x120 x159)) (x94 (x19 x125 x159)) (x9 (x19 x159 x159)) (x147 (x19 x73 x98)) (x2 (x19 x159 x120)) (x28 (x19 x73 x159)) (x157 (x19 x125 x73)) (x132 (x19 x120 x120)) (x155 (x19 x98 x120)) (x109 (x19 x98 x159)) (x74 (x19 x73 x125)) (x89 (x19 x120 x125)) (x156 (x19 x98 x98)) (x115 (x19 x120 x98)) (x99 (x19 x73 x73))) (and (and (and (and (and (and (and (and (or (or (or (= x132 x125) (or (= x132 x98) (= x132 x120))) (= x159 x132)) (= x132 x73)) (or (= x115 x73) (or (= x159 x115) (or (= x115 x125) (or (= x115 x120) (= x98 x115)))))) (or (or (or (= x89 x125) (or (= x89 x98) (= x120 x89))) (= x159 x89)) (= x73 x89))) (or (or (or (= x125 x146) (or (= x146 x120) (= x146 x98))) (= x146 x159)) (= x146 x73))) (or (= x135 x73) (or (or (= x125 x135) (or (= x98 x135) (= x120 x135))) (= x135 x159)))) (and (or (= x7 x73) (or (= x159 x7) (or (or (= x7 x98) (= x7 x120)) (= x125 x7)))) (and (and (or (or (= x159 x26) (or (= x125 x26) (or (= x26 x98) (= x120 x26)))) (= x73 x26)) (and (or (= x73 x156) (or (= x159 x156) (or (= x125 x156) (or (= x156 x120) (= x156 x98))))) (or (= x155 x73) (or (= x155 x159) (or (= x155 x125) (or (= x155 x120) (= x98 x155))))))) (or (or (= x159 x109) (or (= x125 x109) (or (= x98 x109) (= x120 x109)))) (= x109 x73))))) (and (or (or (or (= x125 x157) (or (= x120 x157) (= x157 x98))) (= x157 x159)) (= x73 x157)) (and (or (= x94 x73) (or (= x159 x94) (or (= x94 x125) (or (= x98 x94) (= x120 x94))))) (and (or (or (= x159 x143) (or (or (= x143 x98) (= x120 x143)) (= x143 x125))) (= x143 x73)) (and (or (or (or (or (= x24 x98) (= x24 x120)) (= x125 x24)) (= x24 x159)) (= x73 x24)) (or (= x73 x66) (or (or (= x66 x125) (or (= x98 x66) (= x66 x120))) (= x159 x66)))))))) (and (and (and (and (or (or (= x159 x114) (or (= x125 x114) (or (= x114 x120) (= x98 x114)))) (= x114 x73)) (or (or (= x159 x2) (or (= x2 x125) (or (= x2 x120) (= x2 x98)))) (= x73 x2))) (or (= x145 x73) (or (= x145 x159) (or (or (= x145 x98) (= x120 x145)) (= x125 x145))))) (or (= x9 x73) (or (or (or (= x9 x98) (= x9 x120)) (= x125 x9)) (= x9 x159)))) (or (= x142 x73) (or (or (= x125 x142) (or (= x142 x120) (= x98 x142))) (= x159 x142))))) (and (and (and (or (or (or (= x125 x74) (or (= x98 x74) (= x120 x74))) (= x159 x74)) (= x73 x74)) (and (or (or (= x159 x106) (or (= x106 x125) (or (= x106 x120) (= x106 x98)))) (= x73 x106)) (or (or (= x159 x147) (or (or (= x147 x120) (= x98 x147)) (= x125 x147))) (= x73 x147)))) (or (= x28 x73) (or (= x159 x28) (or (= x28 x125) (or (= x98 x28) (= x120 x28)))))) (or (= x99 x73) (or (or (or (= x98 x99) (= x99 x120)) (= x99 x125)) (= x159 x99)))))))
(assert (and (and (not (= x125 x73)) (and (and (and (not (= x98 x159)) (and (and (not (= x120 x73)) (and (and (not (= x98 x120)) (not (= x120 x125))) (not (= x159 x120)))) (not (= x98 x125)))) (not (= x73 x98))) (not (= x159 x125)))) (not (= x73 x159))))
(assert (or (= (x19 x73 x73) x73) (or (= (x19 x159 x159) x159) (or (= (x19 x125 x125) x125) (or (= x98 (x19 x98 x98)) (= (x19 x120 x120) x120))))))
(assert (and (= (x19 x120 x125) x73) (and (= x159 (x19 x98 x73)) (and (= x120 (x19 x125 x125)) (= (x19 x120 x73) x98)))))
(assert (or (and (and (and (= (x19 x73 (x19 x73 x125)) x125) (and (= x120 (x19 x73 (x19 x73 x120))) (= x98 (x19 x73 (x19 x73 x98))))) (= (x19 x73 (x19 x73 x159)) x159)) (= x73 (x19 x73 (x19 x73 x73)))) (or (and (= x73 (x19 x159 (x19 x159 x73))) (and (= x159 (x19 x159 (x19 x159 x159))) (and (= x125 (x19 x159 (x19 x159 x125))) (and (= x120 (x19 x159 (x19 x159 x120))) (= (x19 x159 (x19 x159 x98)) x98))))) (or (and (= (x19 x125 (x19 x125 x73)) x73) (and (and (= (x19 x125 (x19 x125 x125)) x125) (and (= (x19 x125 (x19 x125 x120)) x120) (= x98 (x19 x125 (x19 x125 x98))))) (= (x19 x125 (x19 x125 x159)) x159))) (or (and (= (x19 x120 (x19 x120 x73)) x73) (and (= x159 (x19 x120 (x19 x120 x159))) (and (and (= x98 (x19 x120 (x19 x120 x98))) (= (x19 x120 (x19 x120 x120)) x120)) (= (x19 x120 (x19 x120 x125)) x125)))) (and (= x73 (x19 x98 (x19 x98 x73))) (and (= (x19 x98 (x19 x98 x159)) x159) (and (= (x19 x98 (x19 x98 x125)) x125) (and (= (x19 x98 (x19 x98 x120)) x120) (= (x19 x98 (x19 x98 x98)) x98))))))))))
(assert (not (and (= (x19 x73 x73) x120) (and (= (x19 x73 x159) x98) (and (= (x19 x73 x125) x159) (and (= (x19 x73 x98) x73) (and (= (x19 x73 x120) x125) (and (and (and (and (= (x19 x159 x98) x98) (and (and (= x125 (x19 x125 x73)) (and (and (and (and (= x98 (x19 x125 x120)) (and (= (x19 x98 x73) x159) (and (and (= (x19 x98 x125) x98) (and (and (and (and (= (x19 x120 x159) x120) (and (and (= x125 (x19 x120 x98)) (= x159 (x19 x120 x120))) (= x73 (x19 x120 x125)))) (= (x19 x120 x73) x98)) (= x73 (x19 x98 x120))) (= x120 (x19 x98 x98)))) (= (x19 x98 x159) x125)))) (= x159 (x19 x125 x98))) (= (x19 x125 x125) x120)) (= x73 (x19 x125 x159)))) (= x120 (x19 x159 x120)))) (= (x19 x159 x125) x125)) (= (x19 x159 x159) x159)) (= x73 (x19 x159 x73))))))))))
(assert (let ((x132 (x19 x120 x120)) (x115 (x19 x98 x98)) (x146 (x19 x159 x159)) (x135 (x19 x73 x73)) (x89 (x19 x125 x125))) (or (or (or (or (not (= (x19 x115 x115) x115)) (not (= x132 (x19 x132 x132)))) (not (= (x19 x89 x89) x89))) (not (= (x19 x146 x146) x146))) (not (= (x19 x135 x135) x135)))))
(assert (let ((x123 (x19 x98 x98)) (x102 (x19 x159 x98)) (x87 (x19 x159 x125)) (x144 (x19 x120 x98)) (x92 (x19 x120 x120)) (x10 (x19 x73 x159)) (x60 (x19 x125 x120)) (x58 (x19 x98 x159)) (x151 (x19 x125 x159)) (x67 (x19 x73 x120)) (x78 (x19 x125 x73)) (x18 (x19 x98 x73)) (x149 (x19 x73 x125)) (x152 (x19 x125 x125)) (x68 (x19 x73 x73)) (x57 (x19 x159 x73)) (x51 (x19 x120 x125)) (x45 (x19 x98 x125)) (x40 (x19 x159 x159)) (x25 (x19 x125 x98)) (x90 (x19 x120 x159)) (x59 (x19 x98 x120)) (x119 (x19 x73 x98)) (x148 (x19 x120 x73)) (x52 (x19 x159 x120))) (let ((x135 (not (= x120 x60))) (x143 (not (= x120 x58))) (x42 (not (= x67 x73))) (x136 (not (= x98 x45))) (x39 (not (= x59 x98))) (x49 (not (= x125 x149))) (x115 (not (= x59 x120))) (x74 (not (= x120 x10))) (x94 (not (= x87 x120))) (x37 (not (= x90 x159))) (x158 (not (= x123 x98))) (x62 (not (= x125 x68))) (x69 (not (= x149 x159))) (x29 (not (= x98 x148))) (x106 (not (= x149 x120))) (x54 (not (= x151 x98))) (x22 (not (= x98 x52))) (x147 (not (= x78 x120))) (x154 (not (= x45 x125))) (x53 (not (= x98 x92))) (x64 (not (= x125 x148))) (x50 (not (= x125 x87))) (x129 (not (= x51 x159))) (x5 (not (= x123 x159))) (x44 (not (= x10 x73))) (x24 (not (= x102 x120))) (x130 (not (= x98 x40))) (x38 (not (= x60 x125))) (x88 (not (= x152 x125))) (x111 (not (= x87 x159))) (x137 (not (= x92 x73))) (x26 (not (= x45 x120))) (x132 (not (= x92 x120))) (x114 (not (= x120 x67))) (x101 (not (= x102 x125))) (x43 (not (= x125 x18))) (x117 (not (= x125 x78))) (x48 (not (= x98 x87))) (x124 (not (= x92 x125))) (x8 (not (= x123 x73))) (x141 (not (= x59 x125))) (x75 (not (= x92 x159))) (x66 (not (= x120 x90))) (x15 (not (= x90 x125))) (x14 (not (= x159 x119))) (x105 (not (= x52 x73))) (x109 (not (= x152 x120))) (x127 (not (= x159 x18))) (x131 (not (= x119 x98))) (x23 (not (= x68 x98))) (x110 (not (= x125 x144))) (x1 (not (= x57 x159))) (x95 (not (= x148 x73))) (x126 (not (= x45 x159))) (x99 (not (= x120 x68))) (x134 (not (= x57 x125))) (x34 (not (= x51 x73))) (x41 (not (= x125 x40))) (x128 (not (= x102 x98))) (x133 (not (= x125 x25))) (x30 (not (= x98 x67))) (x79 (not (= x98 x58))) (x112 (not (= x159 x25))) (x46 (not (= x73 x59))) (x118 (not (= x125 x67))) (x80 (not (= x25 x98))) (x9 (not (= x120 x119))) (x70 (not (= x90 x73))) (x2 (not (= x120 x40))) (x77 (not (= x125 x123))) (x20 (not (= x73 x18))) (x100 (not (= x159 x152))) (x31 (not (= x73 x45))) (x12 (not (= x25 x73))) (x138 (not (= x102 x73))) (x81 (not (= x73 x68))) (x103 (not (= x73 x144))) (x4 (not (= x159 x68))) (x155 (not (= x51 x120))) (x36 (not (= x159 x10))) (x153 (not (= x52 x159))) (x33 (not (= x159 x151))) (x35 (not (= x119 x73))) (x107 (not (= x10 x125))) (x121 (not (= x73 x60))) (x63 (not (= x67 x159))) (x11 (not (= x98 x78))) (x86 (not (= x58 x159))) (x96 (not (= x78 x73))) (x116 (not (= x98 x152))) (x13 (not (= x159 x144))) (x91 (not (= x98 x18))) (x145 (not (= x120 x148))) (x113 (not (= x51 x125))) (x21 (not (= x125 x119))) (x84 (not (= x51 x98))) (x150 (not (= x90 x98))) (x3 (not (= x40 x159))) (x82 (not (= x73 x149))) (x157 (not (= x151 x120))) (x47 (not (= x10 x98))) (x108 (not (= x125 x151))) (x76 (not (= x60 x98))) (x16 (not (= x125 x52))) (x71 (not (= x87 x73))) (x55 (not (= x148 x159))) (x7 (not (= x120 x52))) (x28 (not (= x120 x57))) (x122 (not (= x159 x102))) (x65 (not (= x73 x152))) (x27 (not (= x98 x149))) (x6 (not (= x58 x73))) (x142 (not (= x120 x18))) (x140 (not (= x98 x144))) (x72 (not (= x58 x125))) (x89 (not (= x120 x144))) (x83 (not (= x78 x159))) (x61 (not (= x98 x57))) (x156 (not (= x120 x25))) (x146 (not (= x120 x123))) (x32 (not (= x73 x40))) (x56 (not (= x57 x73))) (x17 (not (= x159 x60))) (x85 (not (= x151 x73))) (x139 (not (= x159 x59)))) (or (and (and (and (or x44 x56) (and (or x82 x96) (and (or x42 x95) (or x20 x35)))) (or x81 x81)) (and (and (and (and (or x85 x71) (and (and (or x121 x34) (or x12 x31)) (or x65 x65))) (or x82 x96)) (and (and (or x42 x95) (and (and (and (or x137 x137) (or x103 x46)) (or x121 x34)) (or x105 x70))) (and (or x20 x35) (and (or x6 x138) (and (and (or x46 x103) (or x8 x8)) (or x31 x12)))))) (and (or x44 x56) (and (or x32 x32) (and (and (or x6 x138) (or x70 x105)) (or x71 x85)))))) (or (or (or (and (and (and (or x28 x74) (and (and (or x94 x157) (and (or x24 x143) (or x66 x7))) (or x2 x2))) (and (and (and (or x145 x114) (and (and (and (or x132 x132) (or x115 x89)) (or x135 x155)) (or x7 x66))) (and (and (and (or x156 x26) (and (or x146 x146) (or x89 x115))) (or x143 x24)) (or x9 x142))) (and (and (or x94 x157) (and (and (or x156 x26) (or x135 x155)) (or x109 x109))) (or x147 x106)))) (and (or x99 x99) (and (and (or x147 x106) (and (or x114 x145) (or x9 x142))) (or x28 x74)))) (and (and (and (and (and (and (or x22 x150) (and (and (or x53 x53) (or x39 x140)) (or x84 x76))) (or x29 x30)) (and (and (and (and (or x158 x158) (or x140 x39)) (or x80 x136)) (or x79 x128)) (or x131 x91))) (and (or x27 x11) (and (and (or x116 x116) (and (or x76 x84) (or x80 x136))) (or x48 x54)))) (and (or x61 x47) (and (and (or x48 x54) (and (or x79 x128) (or x22 x150))) (or x130 x130)))) (and (or x23 x23) (and (and (or x27 x11) (and (or x131 x91) (or x30 x29))) (or x61 x47))))) (and (and (and (or x107 x134) (and (or x117 x49) (and (or x64 x118) (or x21 x43)))) (or x62 x62)) (and (and (and (or x117 x49) (and (and (and (or x154 x133) (or x38 x113)) (or x88 x88)) (or x108 x50))) (and (and (or x118 x64) (and (and (or x113 x38) (and (or x141 x110) (or x124 x124))) (or x15 x16))) (and (or x43 x21) (and (or x72 x101) (and (and (or x77 x77) (or x141 x110)) (or x154 x133)))))) (and (or x107 x134) (and (and (and (or x15 x16) (or x72 x101)) (or x50 x108)) (or x41 x41)))))) (and (and (and (or x36 x1) (and (or x3 x3) (and (or x33 x111) (and (or x86 x122) (or x37 x153))))) (and (and (and (and (or x122 x86) (and (and (or x139 x13) (or x5 x5)) (or x126 x112))) (or x127 x14)) (and (and (or x153 x37) (and (and (or x13 x139) (or x75 x75)) (or x17 x129))) (or x63 x55))) (and (or x69 x83) (and (or x111 x33) (and (or x100 x100) (and (or x129 x17) (or x112 x126))))))) (and (and (and (or x83 x69) (and (or x127 x14) (or x55 x63))) (or x1 x36)) (or x4 x4))))))))
(assert (or (and (and (and (and (not (= x98 (x19 x73 (x19 x73 x98)))) (not (= x120 (x19 x73 (x19 x73 x120))))) (not (= (x19 x73 (x19 x73 x125)) x125))) (not (= (x19 x73 (x19 x73 x159)) x159))) (not (= x73 (x19 x73 (x19 x73 x73))))) (or (and (not (= (x19 x159 (x19 x159 x73)) x73)) (and (and (not (= x125 (x19 x159 (x19 x159 x125)))) (and (not (= (x19 x159 (x19 x159 x120)) x120)) (not (= (x19 x159 (x19 x159 x98)) x98)))) (not (= (x19 x159 (x19 x159 x159)) x159)))) (or (and (and (and (and (not (= x98 (x19 x125 (x19 x125 x98)))) (not (= (x19 x125 (x19 x125 x120)) x120))) (not (= x125 (x19 x125 (x19 x125 x125))))) (not (= (x19 x125 (x19 x125 x159)) x159))) (not (= x73 (x19 x125 (x19 x125 x73))))) (or (and (and (and (and (not (= x120 (x19 x98 (x19 x98 x120)))) (not (= (x19 x98 (x19 x98 x98)) x98))) (not (= (x19 x98 (x19 x98 x125)) x125))) (not (= x159 (x19 x98 (x19 x98 x159))))) (not (= x73 (x19 x98 (x19 x98 x73))))) (and (and (not (= (x19 x120 (x19 x120 x159)) x159)) (and (and (not (= (x19 x120 (x19 x120 x120)) x120)) (not (= x98 (x19 x120 (x19 x120 x98))))) (not (= x125 (x19 x120 (x19 x120 x125)))))) (not (= (x19 x120 (x19 x120 x73)) x73))))))))
(assert (not (and (and (= x98 (x19 x73 x159)) (and (= x159 (x19 x73 x125)) (and (and (= (x19 x73 x120) x125) (and (= (x19 x159 x73) x73) (and (= (x19 x159 x159) x159) (and (= (x19 x159 x125) x125) (and (= (x19 x159 x98) x98) (and (and (and (= (x19 x125 x159) x73) (and (= (x19 x125 x125) x120) (and (= (x19 x125 x98) x159) (and (= (x19 x125 x120) x98) (and (= x159 (x19 x98 x73)) (and (and (= x98 (x19 x98 x125)) (and (and (and (and (and (= x73 (x19 x120 x125)) (and (= x159 (x19 x120 x120)) (= x125 (x19 x120 x98)))) (= x120 (x19 x120 x159))) (= x98 (x19 x120 x73))) (= x73 (x19 x98 x120))) (= (x19 x98 x98) x120))) (= x125 (x19 x98 x159)))))))) (= (x19 x125 x73) x125)) (= (x19 x159 x120) x120))))))) (= x73 (x19 x73 x98))))) (= x120 (x19 x73 x73)))))
(assert (let ((x146 (x19 x159 x159)) (x135 (x19 x73 x73)) (x89 (x19 x125 x125)) (x115 (x19 x98 x98)) (x132 (x19 x120 x120))) (or (and (not (= x73 x135)) (and (not (= x146 x73)) (and (and (not (= x132 x73)) (not (= x73 x115))) (not (= x73 x89))))) (or (or (and (not (= x125 x135)) (and (and (and (not (= x125 x132)) (not (= x115 x125))) (not (= x125 x89))) (not (= x125 x146)))) (or (and (not (= x135 x98)) (and (and (not (= x89 x98)) (and (not (= x115 x98)) (not (= x98 x132)))) (not (= x146 x98)))) (and (and (and (not (= x120 x89)) (and (not (= x120 x132)) (not (= x115 x120)))) (not (= x146 x120))) (not (= x120 x135))))) (and (not (= x159 x135)) (and (not (= x146 x159)) (and (not (= x159 x89)) (and (not (= x132 x159)) (not (= x159 x115))))))))))
(assert (let ((x114 (x19 x98 x159)) (x2 (x19 x120 x159)) (x147 (x19 x98 x73)) (x143 (x19 x125 x125)) (x106 (x19 x120 x73)) (x146 (x19 x159 x120)) (x157 (x19 x73 x125)) (x145 (x19 x125 x159)) (x156 (x19 x98 x98)) (x7 (x19 x73 x98)) (x94 (x19 x159 x125)) (x142 (x19 x73 x159)) (x26 (x19 x125 x98)) (x155 (x19 x120 x98)) (x109 (x19 x159 x98)) (x115 (x19 x98 x120)) (x66 (x19 x120 x125)) (x132 (x19 x120 x120)) (x24 (x19 x98 x125)) (x135 (x19 x73 x120)) (x28 (x19 x159 x73)) (x99 (x19 x73 x73)) (x89 (x19 x125 x120)) (x9 (x19 x159 x159)) (x74 (x19 x125 x73))) (and (and (and (and (and (not (= x74 x28)) (and (not (= x147 x99)) (and (and (not (= x147 x74)) (and (not (= x106 x99)) (and (not (= x28 x106)) (and (not (= x106 x147)) (not (= x74 x106)))))) (not (= x147 x28))))) (not (= x99 x74))) (not (= x28 x99))) (and (and (and (and (and (and (not (= x114 x9)) (and (not (= x114 x145)) (and (not (= x2 x142)) (and (and (not (= x145 x2)) (not (= x114 x2))) (not (= x2 x9)))))) (not (= x114 x142))) (not (= x9 x145))) (not (= x145 x142))) (not (= x9 x142))) (and (and (not (= x157 x94)) (and (and (and (and (and (and (and (not (= x66 x94)) (and (not (= x143 x66)) (not (= x66 x24)))) (not (= x66 x157))) (not (= x143 x24))) (not (= x24 x94))) (not (= x24 x157))) (not (= x143 x94))) (not (= x143 x157)))) (and (and (and (not (= x89 x135)) (and (and (and (and (and (not (= x132 x135)) (and (not (= x132 x146)) (and (not (= x89 x132)) (not (= x132 x115))))) (not (= x115 x89))) (not (= x115 x146))) (not (= x135 x115))) (not (= x146 x89)))) (not (= x135 x146))) (and (not (= x109 x7)) (and (not (= x26 x7)) (and (and (not (= x156 x7)) (and (not (= x156 x109)) (and (and (and (and (not (= x155 x26)) (not (= x156 x155))) (not (= x155 x109))) (not (= x155 x7))) (not (= x156 x26))))) (not (= x26 x109))))))))) (and (and (and (not (= x9 x28)) (and (and (not (= x9 x94)) (and (not (= x109 x28)) (and (not (= x109 x9)) (and (and (not (= x146 x28)) (and (not (= x9 x146)) (and (not (= x146 x109)) (not (= x94 x146))))) (not (= x109 x94)))))) (not (= x28 x94)))) (and (and (and (and (and (and (and (not (= x155 x2)) (and (not (= x155 x66)) (and (not (= x132 x106)) (and (and (not (= x132 x66)) (not (= x132 x155))) (not (= x2 x132)))))) (not (= x155 x106))) (not (= x2 x66))) (not (= x66 x106))) (not (= x2 x106))) (and (not (= x114 x147)) (and (not (= x24 x147)) (and (not (= x24 x114)) (and (and (and (and (and (and (not (= x156 x115)) (not (= x24 x115))) (not (= x114 x115))) (not (= x147 x115))) (not (= x156 x24))) (not (= x114 x156))) (not (= x147 x156))))))) (and (and (and (not (= x145 x143)) (and (and (not (= x145 x26)) (and (and (and (not (= x89 x145)) (and (not (= x26 x89)) (not (= x143 x89)))) (not (= x74 x89))) (not (= x26 x143)))) (not (= x26 x74)))) (not (= x143 x74))) (not (= x145 x74))))) (and (and (and (and (and (and (not (= x157 x7)) (and (not (= x99 x135)) (and (and (not (= x157 x135)) (not (= x135 x7))) (not (= x135 x142))))) (not (= x142 x7))) (not (= x99 x7))) (not (= x142 x157))) (not (= x99 x157))) (not (= x99 x142)))))))
(assert (let ((x132 (= (x19 x120 x120) x120)) (x26 (= x125 (x19 x125 x125))) (x7 (= (x19 x73 x73) x73)) (x109 (= x159 (x19 x159 x159))) (x89 (= x98 (x19 x98 x98)))) (let ((x135 (not x26)) (x155 (not x109)) (x115 (not x132)) (x146 (not x89)) (x156 (not x7))) (or (or (and x7 x156) (or (or (and (= (x19 x73 x125) x73) x135) (or (and (= (x19 x73 x120) x73) x115) (and x146 (= (x19 x73 x98) x73)))) (and (= (x19 x73 x159) x73) x155))) (or (or (or (or (or (and x146 (= (x19 x159 x98) x159)) (and (= (x19 x159 x120) x159) x115)) (and x135 (= x159 (x19 x159 x125)))) (and x109 x155)) (and (= (x19 x159 x73) x159) x156)) (or (or (or (or (or (and x135 (= x120 (x19 x120 x125))) (or (and x132 x115) (and x146 (= (x19 x120 x98) x120)))) (and x155 (= (x19 x120 x159) x120))) (and x156 (= (x19 x120 x73) x120))) (or (or (or (or (and x146 x89) (and (= x98 (x19 x98 x120)) x115)) (and x135 (= x98 (x19 x98 x125)))) (and (= x98 (x19 x98 x159)) x155)) (and (= (x19 x98 x73) x98) x156))) (or (and (= x125 (x19 x125 x73)) x156) (or (and x155 (= x125 (x19 x125 x159))) (or (or (and x146 (= x125 (x19 x125 x98))) (and x115 (= x125 (x19 x125 x120)))) (and x26 x135))))))))))
(assert (and (and (and (and (or (or (= (x19 (x19 x159 x120) x120) x159) (or (= (x19 (x19 x125 x120) x120) x125) (or (= x120 (x19 (x19 x120 x120) x120)) (= (x19 (x19 x98 x120) x120) x98)))) (= x73 (x19 (x19 x73 x120) x120))) (or (or (or (= x125 (x19 (x19 x125 x98) x98)) (or (= (x19 (x19 x98 x98) x98) x98) (= x120 (x19 (x19 x120 x98) x98)))) (= (x19 (x19 x159 x98) x98) x159)) (= (x19 (x19 x73 x98) x98) x73))) (or (or (= x159 (x19 (x19 x159 x125) x125)) (or (= (x19 (x19 x125 x125) x125) x125) (or (= x98 (x19 (x19 x98 x125) x125)) (= x120 (x19 (x19 x120 x125) x125))))) (= (x19 (x19 x73 x125) x125) x73))) (or (= (x19 (x19 x73 x159) x159) x73) (or (or (= (x19 (x19 x125 x159) x159) x125) (or (= (x19 (x19 x98 x159) x159) x98) (= x120 (x19 (x19 x120 x159) x159)))) (= x159 (x19 (x19 x159 x159) x159))))) (or (or (or (= (x19 (x19 x125 x73) x73) x125) (or (= x98 (x19 (x19 x98 x73) x73)) (= x120 (x19 (x19 x120 x73) x73)))) (= x159 (x19 (x19 x159 x73) x73))) (= (x19 (x19 x73 x73) x73) x73))))
(assert (let ((x147 (x19 x98 x73)) (x53 (x19 x73 x98)) (x154 (x19 x73 x159)) (x55 (x19 x73 x73)) (x135 (x19 x120 x159)) (x155 (x19 x120 x73)) (x18 (x19 x125 x125)) (x109 (x19 x125 x120)) (x89 (x19 x120 x98)) (x142 (x19 x98 x125)) (x115 (x19 x120 x120)) (x106 (x19 x98 x159)) (x146 (x19 x120 x125)) (x7 (x19 x159 x120)) (x141 (x19 x159 x159)) (x110 (x19 x159 x73)) (x152 (x19 x159 x125)) (x116 (x19 x73 x125)) (x76 (x19 x125 x73)) (x26 (x19 x98 x120)) (x66 (x19 x73 x120)) (x92 (x19 x159 x98)) (x9 (x19 x98 x98)) (x119 (x19 x125 x159)) (x99 (x19 x125 x98))) (let ((x52 (= x159 x9)) (x13 (= x73 x119)) (x54 (= x159 x18)) (x67 (= x73 x89)) (x2 (= x89 x120)) (x42 (= x66 x73)) (x8 (= x147 x125)) (x45 (= x120 x142)) (x151 (= x109 x125)) (x131 (= x92 x120)) (x6 (= x147 x159)) (x36 (= x98 x55)) (x122 (= x120 x110)) (x121 (= x76 x125)) (x68 (= x7 x98)) (x48 (= x159 x142)) (x49 (= x159 x119)) (x105 (= x159 x116)) (x5 (= x73 x141)) (x34 (= x125 x110)) (x133 (= x98 x141)) (x136 (= x98 x18)) (x139 (= x73 x106)) (x71 (= x159 x76)) (x80 (= x142 x98)) (x113 (= x119 x98)) (x63 (= x98 x154)) (x127 (= x98 x147)) (x72 (= x106 x125)) (x28 (= x9 x98)) (x27 (= x135 x120)) (x37 (= x76 x120)) (x51 (= x125 x9)) (x43 (= x106 x159)) (x118 (= x92 x159)) (x138 (= x155 x159)) (x130 (= x99 x73)) (x91 (= x120 x152)) (x158 (= x146 x120)) (x3 (= x98 x116)) (x47 (= x119 x120)) (x83 (= x110 x98)) (x132 (= x120 x115)) (x33 (= x53 x98)) (x56 (= x110 x73)) (x14 (= x155 x98)) (x86 (= x120 x55)) (x140 (= x120 x109)) (x128 (= x159 x99)) (x95 (= x53 x73)) (x10 (= x142 x73)) (x69 (= x98 x76)) (x78 (= x125 x146)) (x30 (= x18 x73)) (x15 (= x125 x152)) (x108 (= x141 x125)) (x117 (= x159 x141)) (x157 (= x26 x120)) (x21 (= x159 x135)) (x50 (= x119 x125)) (x114 (= x9 x120)) (x112 (= x116 x120)) (x149 (= x142 x125)) (x111 (= x66 x98)) (x123 (= x99 x120)) (x59 (= x89 x125)) (x61 (= x120 x141)) (x16 (= x92 x125)) (x24 (= x115 x125)) (x96 (= x147 x73)) (x57 (= x146 x73)) (x32 (= x159 x55)) (x143 (= x159 x115)) (x101 (= x135 x125)) (x17 (= x120 x66)) (x41 (= x7 x159)) (x4 (= x125 x53)) (x126 (= x154 x120)) (x74 (= x98 x89)) (x11 (= x120 x106)) (x23 (= x92 x98)) (x64 (= x159 x152)) (x144 (= x125 x26)) (x88 (= x125 x7)) (x65 (= x53 x159)) (x62 (= x152 x73)) (x94 (= x73 x115)) (x129 (= x120 x53)) (x107 (= x73 x7)) (x46 (= x154 x125)) (x44 (= x73 x76)) (x31 (= x159 x66)) (x102 (= x98 x99)) (x103 (= x125 x155)) (x58 (= x109 x98)) (x25 (= x18 x120)) (x82 (= x155 x73)) (x84 (= x146 x98)) (x150 (= x109 x159)) (x156 (= x98 x115)) (x153 (= x147 x120)) (x79 (= x146 x159)) (x148 (= x73 x26)) (x100 (= x120 x155)) (x22 (= x18 x125)) (x134 (= x73 x92)) (x124 (= x98 x152)) (x77 (= x135 x98)) (x70 (= x154 x159)) (x81 (= x73 x55)) (x20 (= x73 x154)) (x12 (= x55 x125)) (x60 (= x159 x26)) (x1 (= x125 x66)) (x137 (= x125 x116)) (x85 (= x159 x110)) (x145 (= x98 x26)) (x87 (= x99 x125)) (x39 (= x9 x73)) (x35 (= x73 x116)) (x40 (= x109 x73)) (x29 (= x120 x7)) (x75 (= x135 x73)) (x38 (= x106 x98)) (x90 (= x89 x159))) (and (and (and (and (and (and (and (or (or (or x150 (or x60 x143)) x41) x31) (or (or (or x79 (or x90 x143)) x21) x138)) (and (and (or (or x101 (or (or x59 x24) x78)) x103) (or (or x88 (or (or x24 x144) x151)) x1)) (and (and (or x14 (or x77 (or (or x156 x74) x84))) (or (or (or (or x156 x145) x58) x68) x111)) (and (or (or x29 (or x140 (or x157 x132))) x17) (or (or x27 (or (or x2 x132) x158)) x100))))) (and (or (or (or x57 (or x94 x67)) x75) x82) (or (or x107 (or (or x148 x94) x40)) x42))) (and (and (or (or x139 (or x10 (or x39 x148))) x96) (or (or (or (or x67 x39) x130) x134) x95)) (and (and (and (or (or x16 (or (or x51 x59) x87)) x4) (or (or (or (or x51 x144) x149) x72) x8)) (and (and (or (or (or x123 (or x2 x114)) x131) x129) (or (or (or x45 (or x157 x114)) x11) x153)) (and (or x127 (or x38 (or x80 (or x28 x145)))) (or x33 (or (or x102 (or x28 x74)) x23))))) (and (or x6 (or x43 (or (or x60 x52) x48))) (or x65 (or (or (or x52 x90) x128) x118)))))) (and (and (or (or (or x30 (or x10 x57)) x62) x35) (or (or x13 (or (or x130 x40) x30)) x44)) (and (and (and (and (or (or x124 (or (or x84 x80) x136)) x3) (or (or (or x136 (or x58 x102)) x113) x69)) (and (or x112 (or (or (or x158 x45) x25) x91)) (or (or (or (or x123 x140) x25) x47) x37))) (and (or x121 (or (or (or x87 x151) x22) x50)) (or (or x15 (or (or x78 x149) x22)) x137))) (and (or (or (or (or x79 x48) x54) x64) x105) (or (or (or x54 (or x150 x128)) x49) x71))))) (and (and (or (or (or x62 (or x134 x107)) x5) x56) (or x20 (or x5 (or (or x75 x139) x13)))) (and (and (and (or x34 (or x108 (or x15 (or x16 x88)))) (or (or (or x50 (or x101 x72)) x108) x46)) (and (and (or x83 (or x133 (or (or x68 x23) x124))) (or (or x133 (or x113 (or x38 x77))) x63)) (and (or x122 (or x61 (or x91 (or x29 x131)))) (or x126 (or (or x47 (or x27 x11)) x61))))) (and (or (or (or x64 (or x118 x41)) x117) x85) (or x70 (or x117 (or x49 (or x21 x43)))))))) (and (and (or x81 (or (or (or x96 x82) x44) x56)) (or x81 (or x20 (or (or x42 x95) x35)))) (and (and (or (or (or (or x31 x65) x105) x70) x32) (or x32 (or x85 (or (or x138 x6) x71)))) (and (and (or x12 (or (or (or x8 x103) x121) x34)) (or (or (or (or x4 x1) x137) x46) x12)) (and (and (or x86 (or (or (or x100 x153) x37) x122)) (or x86 (or (or x112 (or x129 x17)) x126))) (and (or (or (or (or x127 x14) x69) x83) x36) (or (or x63 (or x3 (or x111 x33))) x36))))))))))
(assert (or (and (and (and (and (not (= (x19 x98 x73) x98)) (not (= (x19 x120 x73) x120))) (not (= x125 (x19 x125 x73)))) (not (= (x19 x159 x73) x159))) (not (= x73 (x19 x73 x73)))) (or (or (or (and (not (= x73 (x19 x73 x98))) (and (not (= x159 (x19 x159 x98))) (and (and (not (= (x19 x120 x98) x120)) (not (= x98 (x19 x98 x98)))) (not (= (x19 x125 x98) x125))))) (and (not (= x73 (x19 x73 x120))) (and (not (= (x19 x159 x120) x159)) (and (not (= (x19 x125 x120) x125)) (and (not (= (x19 x120 x120) x120)) (not (= (x19 x98 x120) x98))))))) (and (and (not (= x159 (x19 x159 x125))) (and (and (not (= (x19 x98 x125) x98)) (not (= (x19 x120 x125) x120))) (not (= x125 (x19 x125 x125))))) (not (= (x19 x73 x125) x73)))) (and (and (and (not (= (x19 x125 x159) x125)) (and (not (= (x19 x98 x159) x98)) (not (= x120 (x19 x120 x159))))) (not (= (x19 x159 x159) x159))) (not (= (x19 x73 x159) x73))))))
(check-sat)
(exit)
